100 100
33 4 33 41 42 16 77 22 94 42 41 42 91 26 7 31 20 9 44 2 34 30 4 39 96 19 99 18 37 36 50 38 89 37 78 16 40 47 12 22
32 31 77 28 49 30 95 12 30 23 27 18 6 37 31 7 89 21 10 32 25 42 19 17 100 8 21 32 29 34 34 49 86 21 84 17 4 26 29 79
3168 372 7623 3444 6174 480 21945 528 8460 2898 3321 1512 1092 1924 217 217 1780 378 880 64 1700 1260 152 1989 19200 304 2079 576 1073 3672 1700 5586 7654 2331 13104 816 160 2444 1044 3476